min: c;

c = 3.55863556704142 * u1_t7_h4 + 3.28186218580971 * u1_t7_h5 + 4.35392205522574 * u1_t5_h6 + 4.35392205522574 * u1_t7_h6 + 3.72964291445786 * u1_t5_h7 + 3.72964291445786 * u1_t7_h7 + 3.72964291445786 * u1_t9_h7 + 5.61970401410639 * u1_t5_h8 + 5.61970401410639 * u1_t7_h8 + 5.61970401410639 * u1_t9_h8 + 5.61970401410639 * u1_t10_h8 + 5.36234268611059 * u1_t5_h9 + 5.36234268611059 * u1_t7_h9 + 5.36234268611059 * u1_t9_h9 + 5.36234268611059 * u1_t10_h9 + 5.75813284395814 * u1_t5_h10 + 5.75813284395814 * u1_t7_h10 + 5.75813284395814 * u1_t9_h10 + 5.75813284395814 * u1_t10_h10 + 3.76605245450616 * u1_t5_h11 + 3.76605245450616 * u1_t9_h11 + 3.76605245450616 * u1_t10_h11 + 5.93979873660849 * u1_t4_h12 + 5.93979873660849 * u1_t5_h12 + 5.93979873660849 * u1_t8_h12 + 5.93979873660849 * u1_t9_h12 + 5.93979873660849 * u1_t10_h12 + 4.69129185150127 * u1_t4_h13 + 4.69129185150127 * u1_t8_h13 + 4.69129185150127 * u1_t9_h13 + 4.69129185150127 * u1_t10_h13 + 5.26525165406326 * u1_t4_h14 + 5.26525165406326 * u1_t8_h14 + 5.26525165406326 * u1_t9_h14 + 5.26525165406326 * u1_t10_h14 + 5.80019897207768 * u1_t4_h15 + 5.80019897207768 * u1_t8_h15 + 5.96328304296803 * u1_t4_h16 + 5.96328304296803 * u1_t8_h16 + 5.83385950100727 * u1_t4_h17 + 5.83385950100727 * u1_t8_h17 + 6.40232653965331 * u1_t2_h18 + 6.40232653965331 * u1_t4_h18 + 6.40232653965331 * u1_t6_h18 + 6.40232653965331 * u1_t8_h18 + 5.48402769578443 * u1_t2_h19 + 5.48402769578443 * u1_t3_h19 + 5.48402769578443 * u1_t4_h19 + 5.48402769578443 * u1_t6_h19 + 6.05678945006215 * u1_t1_h20 + 6.05678945006215 * u1_t2_h20 + 6.05678945006215 * u1_t3_h20 + 6.05678945006215 * u1_t4_h20 + 6.05678945006215 * u1_t6_h20 + 5.17127110921099 * u1_t1_h21 + 5.17127110921099 * u1_t2_h21 + 5.17127110921099 * u1_t3_h21 + 5.64394020008063 * u1_t1_h22 + 5.64394020008063 * u1_t2_h22 + 5.11342731814487 * u1_t1_h23 + 5.11342731814487 * u1_t2_h23;
0 <= u1_t1_h20 <= 1;
0 <= u1_t1_h21 <= 1;
0 <= u1_t1_h22 <= 1;
0 <= u1_t1_h23 <= 1;
u1_t1_h20 + u1_t1_h21 + u1_t1_h22 + u1_t1_h23 = 1;
0 <= u1_t2_h18 <= 1;
0 <= u1_t2_h19 <= 1;
0 <= u1_t2_h20 <= 1;
0 <= u1_t2_h21 <= 1;
0 <= u1_t2_h22 <= 1;
0 <= u1_t2_h23 <= 1;
u1_t2_h18 + u1_t2_h19 + u1_t2_h20 + u1_t2_h21 + u1_t2_h22 + u1_t2_h23 = 2;
0 <= u1_t3_h19 <= 1;
0 <= u1_t3_h20 <= 1;
0 <= u1_t3_h21 <= 1;
u1_t3_h19 + u1_t3_h20 + u1_t3_h21 = 1;
0 <= u1_t4_h12 <= 1;
0 <= u1_t4_h13 <= 1;
0 <= u1_t4_h14 <= 1;
0 <= u1_t4_h15 <= 1;
0 <= u1_t4_h16 <= 1;
0 <= u1_t4_h17 <= 1;
0 <= u1_t4_h18 <= 1;
0 <= u1_t4_h19 <= 1;
0 <= u1_t4_h20 <= 1;
u1_t4_h12 + u1_t4_h13 + u1_t4_h14 + u1_t4_h15 + u1_t4_h16 + u1_t4_h17 + u1_t4_h18 + u1_t4_h19 + u1_t4_h20 = 3;
0 <= u1_t5_h6 <= 1;
0 <= u1_t5_h7 <= 1;
0 <= u1_t5_h8 <= 1;
0 <= u1_t5_h9 <= 1;
0 <= u1_t5_h10 <= 1;
0 <= u1_t5_h11 <= 1;
0 <= u1_t5_h12 <= 1;
u1_t5_h6 + u1_t5_h7 + u1_t5_h8 + u1_t5_h9 + u1_t5_h10 + u1_t5_h11 + u1_t5_h12 = 3;
0 <= u1_t6_h18 <= 1;
0 <= u1_t6_h19 <= 1;
0 <= u1_t6_h20 <= 1;
u1_t6_h18 + u1_t6_h19 + u1_t6_h20 = 2;
0 <= u1_t7_h4 <= 1;
0 <= u1_t7_h5 <= 1;
0 <= u1_t7_h6 <= 1;
0 <= u1_t7_h7 <= 1;
0 <= u1_t7_h8 <= 1;
0 <= u1_t7_h9 <= 1;
0 <= u1_t7_h10 <= 1;
u1_t7_h4 + u1_t7_h5 + u1_t7_h6 + u1_t7_h7 + u1_t7_h8 + u1_t7_h9 + u1_t7_h10 = 2;
0 <= u1_t8_h12 <= 1;
0 <= u1_t8_h13 <= 1;
0 <= u1_t8_h14 <= 1;
0 <= u1_t8_h15 <= 1;
0 <= u1_t8_h16 <= 1;
0 <= u1_t8_h17 <= 1;
0 <= u1_t8_h18 <= 1;
u1_t8_h12 + u1_t8_h13 + u1_t8_h14 + u1_t8_h15 + u1_t8_h16 + u1_t8_h17 + u1_t8_h18 = 2;
0 <= u1_t9_h7 <= 1;
0 <= u1_t9_h8 <= 1;
0 <= u1_t9_h9 <= 1;
0 <= u1_t9_h10 <= 1;
0 <= u1_t9_h11 <= 1;
0 <= u1_t9_h12 <= 1;
0 <= u1_t9_h13 <= 1;
0 <= u1_t9_h14 <= 1;
u1_t9_h7 + u1_t9_h8 + u1_t9_h9 + u1_t9_h10 + u1_t9_h11 + u1_t9_h12 + u1_t9_h13 + u1_t9_h14 = 3;
0 <= u1_t10_h8 <= 1;
0 <= u1_t10_h9 <= 1;
0 <= u1_t10_h10 <= 1;
0 <= u1_t10_h11 <= 1;
0 <= u1_t10_h12 <= 1;
0 <= u1_t10_h13 <= 1;
0 <= u1_t10_h14 <= 1;
u1_t10_h8 + u1_t10_h9 + u1_t10_h10 + u1_t10_h11 + u1_t10_h12 + u1_t10_h13 + u1_t10_h14 = 3;
